50 10912

220
229
173
103
333
31
284
446
473
442
492
179
492
205
149
1
195
337
140
201
429
355
458
412
385
462
93
435
238
338
126
159
214
474
313
484
475
133
202
194
375
14
240
227
175
42
444
57
134
429
